
Gurobi 10.0.1 (linux64) logging started Sun Nov 26 16:05:48 2023

Set parameter LogFile to value "ArtificialInstance/ExperimentV2/S2T4K3/BaDo/gurobi91.txt"
Gurobi Optimizer version 10.0.1 build v10.0.1rc0 (linux64)

CPU model: AMD EPYC 7H12 64-Core Processor, instruction set [SSE2|AVX|AVX2]
Thread count: 128 physical cores, 128 logical processors, using up to 32 threads

Academic license 656792 - for non-commercial use only - registered to b.___@student.vu.nl
Optimize a model with 945 rows, 1520 columns and 5040 nonzeros
Model fingerprint: 0x4d4b6d2f
Variable types: 0 continuous, 1520 integer (1520 binary)
Coefficient statistics:
  Matrix range     [1e+00, 1e+00]
  Objective range  [2e+00, 2e+01]
  Bounds range     [1e+00, 1e+00]
  RHS range        [1e+00, 1e+00]
Found heuristic solution: objective 586.5402670
Presolve time: 0.01s
Presolved: 945 rows, 1520 columns, 5040 nonzeros
Variable types: 0 continuous, 1520 integer (1520 binary)

Root relaxation: objective 3.699904e+01, 652 iterations, 0.01 seconds (0.01 work units)

    Nodes    |    Current Node    |     Objective Bounds      |     Work
 Expl Unexpl |  Obj  Depth IntInf | Incumbent    BestBd   Gap | It/Node Time

     0     0   36.99904    0  160  586.54027   36.99904  93.7%     -    0s
H    0     0                     192.7474805   36.99904  80.8%     -    0s
H    0     0                     186.0602386   36.99904  80.1%     -    0s
H    0     0                      71.5135386   36.99904  48.3%     -    0s
     0     0   43.40215    0  150   71.51354   43.40215  39.3%     -    0s
H    0     0                      60.6050247   43.40215  28.4%     -    0s
     0     0   47.42716    0  193   60.60502   47.42716  21.7%     -    0s
     0     0   49.41610    0  286   60.60502   49.41610  18.5%     -    0s
     0     0   49.56190    0  289   60.60502   49.56190  18.2%     -    0s
H    0     0                      60.5687719   50.72225  16.3%     -    0s
     0     0   50.72225    0  314   60.56877   50.72225  16.3%     -    0s
H    0     0                      58.5942243   50.97338  13.0%     -    0s
     0     0   50.97338    0  302   58.59422   50.97338  13.0%     -    0s
     0     0   50.97338    0  302   58.59422   50.97338  13.0%     -    0s
     0     0   51.10678    0  283   58.59422   51.10678  12.8%     -    0s
H    0     0                      58.5768657   51.10678  12.8%     -    0s
     0     0   51.10943    0  288   58.57687   51.10943  12.7%     -    0s
     0     0   51.24035    0  323   58.57687   51.24035  12.5%     -    0s
     0     0   51.28513    0  328   58.57687   51.28513  12.4%     -    0s
     0     0   51.28633    0  332   58.57687   51.28633  12.4%     -    0s
     0     0   51.37151    0  290   58.57687   51.37151  12.3%     -    0s
     0     0   51.45550    0  298   58.57687   51.45550  12.2%     -    0s
     0     0   51.48993    0  276   58.57687   51.48993  12.1%     -    0s
     0     0   51.49743    0  280   58.57687   51.49743  12.1%     -    0s
     0     0   51.49743    0  281   58.57687   51.49743  12.1%     -    0s
     0     0   51.66401    0  312   58.57687   51.66401  11.8%     -    0s
     0     0   51.67686    0  311   58.57687   51.67686  11.8%     -    0s
     0     0   51.67906    0  312   58.57687   51.67906  11.8%     -    0s
     0     0   51.90821    0  281   58.57687   51.90821  11.4%     -    0s
     0     0   52.00883    0  309   58.57687   52.00883  11.2%     -    0s
     0     0   52.06195    0  331   58.57687   52.06195  11.1%     -    0s
     0     0   52.07976    0  321   58.57687   52.07976  11.1%     -    0s
     0     0   52.25375    0  332   58.57687   52.25375  10.8%     -    0s
     0     0   52.28439    0  303   58.57687   52.28439  10.7%     -    0s
     0     0   52.28439    0  160   58.57687   52.28439  10.7%     -    0s
     0     0   52.28439    0  243   58.57687   52.28439  10.7%     -    0s
     0     0   52.28439    0  255   58.57687   52.28439  10.7%     -    0s
     0     0   52.41308    0  280   58.57687   52.41308  10.5%     -    0s
     0     0   52.43694    0  278   58.57687   52.43694  10.5%     -    0s
     0     0   52.43694    0  278   58.57687   52.43694  10.5%     -    0s
     0     0   53.11354    0  300   58.57687   53.11354  9.33%     -    0s
     0     0   53.12507    0  300   58.57687   53.12507  9.31%     -    0s
     0     0   53.12676    0  309   58.57687   53.12676  9.30%     -    0s
     0     0   53.12736    0  310   58.57687   53.12736  9.30%     -    0s
     0     0   53.12736    0  314   58.57687   53.12736  9.30%     -    0s
     0     0   53.13485    0  303   58.57687   53.13485  9.29%     -    1s
     0     0   53.13485    0  292   58.57687   53.13485  9.29%     -    1s
     0     2   53.14169    0  291   58.57687   53.14169  9.28%     -    1s

Cutting planes:
  Gomory: 7
  Zero half: 66
  RLT: 13

Explored 67 nodes (11390 simplex iterations) in 1.40 seconds (0.71 work units)
Thread count was 32 (of 128 available processors)

Solution count 8: 58.5769 58.5942 60.5688 ... 586.54

Optimal solution found (tolerance 1.00e-04)
Best objective 5.857686572922e+01, best bound 5.857686572922e+01, gap 0.0000%
